nApps = 199
nRes = 9
nActs = 420
nNetworks = 6

assignmentToResources = [1,1,3,1,1,2,2,1,3,1,2,2,2,1,2,2,3,3,2,3,2,1,2,2,2,2,3,3,3,3,3,3,3,3,1,2,3,2,3,3,2,1,2,3,2,1,3,2,3,1,3,1,1,1,3,1,1,1,1,3,2,2,3,2,2,3,1,1,3,2,3,2,3,2,2,2,2,3,3,2,2,3,3,3,3,2,1,3,1,2,3,3,3,2,3,2,2,2,2,1,4,4,4,6,6,4,4,4,4,4,4,4,5,5,4,6,6,6,4,4,5,5,5,5,5,5,5,4,4,4,5,5,5,5,6,6,6,6,5,6,6,6,5,4,4,4,4,4,5,5,5,5,5,5,5,5,5,6,6,6,6,6,6,6,6,4,4,4,6,6,6,6,6,5,5,5,5,5,5,5,5,5,5,4,6,6,5,6,6,4,4,4,4,4,4,4,4,4,4,4,4,4,4,5,6,5,5,5,4,6,6,6,5,5,6,6,6,5,5,5,6,4,6,4,5,6,6,6,6,5,5,5,5,5,7,6,7,5,7,4,9,6,8,4,8,5,7,5,9,4,8,6,7,5,7,6,7,5,9,4,8,4,8,5,7,6,8,4,9,5,7,6,8,5,7,6,7,4,8,5,9,5,7,6,8,5,9,8,8,9,8,8,9,8,8,8,9,9,8,9,7,8,7,8,8,8,9,7,7,9,9,9,7,7,8,9,8,9,7,9,9,8,8,8,8,7,8,8,8,9,8,9,8,8,9,9,9,7,9,9,9,9,9,9,7,8,7,7,7,7,8,7,8,8,8,7,8,8,7,8,9,9,7,9,9,9,9,9,7,9,8,8,7,9,7,8,9,8,8,9,9,8,8,9,9,9,9,8,9,9,7,8,9,7,9,8,7,8,8,9,9,7,8,7,7,9,9,7,8,8,9,9,8,8,8,8,7,7,9,9];

processingTimes = [136,80,104,128,120,128,104,104,136,128,112,120,112,112,144,136,104,120,88,120,104,112,64,128,72,80,112,64,168,120,128,168,112,80,120,112,120,136,128,104,128,120,104,136,88,152,104,128,112,152,112,72,56,112,144,120,160,88,112,128,104,120,104,136,120,144,144,136,144,88,96,80,152,136,144,88,136,72,56,96,120,152,128,56,72,160,120,168,120,112,120,136,104,96,136,56,128,136,104,56,13,13,500,4,4,3,3,3,3,4,500,4,8,13,4,5,8,3,100,5,3,500,3,4,3,3,4,4,13,500,3,4,8,8,13,13,3,3,6,3,4,500,3,8,500,500,500,13,3,3,3,5,5,500,3,8,8,4,4,4,4,4,3,3,3,3,3,8,4,3,3,5,500,4,4,3,3,3,4,4,3,3,7,23,500,13,4,200,3,3,4,3,500,4,5,3,4,4,3,3,100,100,100,4,4,3,500,4,500,1000,4,3,4,13,3,500,3,4,5,500,1000,3,500,500,500,3,4,4,4,5,8,4,4,8,8,8,8,5,5,5,5,3,3,5,5,5,5,4,4,4,4,8,8,3,3,4,4,4,4,13,13,3,3,4,4,3,3,4,4,3,3,500,500,500,500,4,4,4,4,4,4,26,26,4,4,500,500,13,13,500,4,4,3,3,3,3,4,500,4,8,13,4,5,8,3,100,5,3,500,3,4,3,3,4,4,13,500,3,4,8,8,13,13,3,3,6,3,4,500,3,8,500,500,500,13,3,3,3,5,5,500,3,8,8,4,4,4,4,4,3,3,3,3,3,8,4,3,3,5,500,4,4,3,3,3,4,4,3,3,7,23,500,13,4,200,3,3,4,3,500,4,5,3,4,4,3,3,100,100,100,4,4,3,500,4,500,1000,4,3,4,13,3,500,3,4,5,500,1000,3,500,500,500,3,4,4,4,5,8,4,4];

periods = [20000,100000,10000,100000,100000,100000,10000,20000,100000,1000,100000,100000,20000,10000,100000,10000,10000,10000,100000,20000,20000,20000,20000,100000,100000,1000,20000,10000,20000,10000,20000,10000,20000,10000,20000,20000,10000,20000,20000,20000,10000,100000,20000,20000,2000,10000,50000,20000,10000,100000,2000,50000,20000,20000,20000,20000,10000,20000,1000,100000,100000,20000,10000,20000,100000,100000,100000,20000,10000,100000,10000,10000,5000,10000,20000,10000,20000,20000,100000,5000,20000,100000,100000,50000,20000,20000,10000,20000,20000,10000,100000,20000,20000,20000,10000,100000,100000,20000,20000,20000,20000,20000,20000,10000,10000,100000,100000,100000,100000,100000,100000,100000,100000,10000,20000,100000,100000,100000,1000,1000,100000,100000,100000,100000,20000,20000,20000,10000,10000,10000,100000,100000,10000,10000,10000,10000,10000,10000,100000,20000,20000,20000,20000,20000,20000,20000,20000,20000,20000,100000,100000,100000,100000,100000,100000,1000,1000,20000,10000,10000,10000,10000,10000,10000,10000,20000,20000,20000,10000,10000,10000,20000,20000,10000,10000,10000,10000,10000,20000,20000,20000,20000,2000,10000,50000,50000,20000,2000,2000,50000,20000,20000,20000,20000,20000,20000,20000,20000,20000,20000,1000,1000,1000,20000,10000,100000,100000,100000,20000,10000,10000,5000,20000,20000,20000,20000,20000,5000,20000,20000,100000,10000,20000,20000,10000,20000,20000,20000,10000,100000,20000,20000,20000,100000,100000,100000,100000,100000,100000,100000,100000,100000,100000,100000,100000,100000,100000,10000,10000,10000,10000,10000,10000,10000,10000,10000,10000,10000,10000,10000,10000,20000,20000,20000,20000,20000,20000,20000,20000,20000,20000,20000,20000,20000,20000,20000,20000,20000,20000,20000,20000,10000,10000,10000,10000,5000,5000,20000,20000,20000,10000,10000,100000,100000,100000,100000,100000,100000,100000,100000,10000,20000,100000,100000,100000,1000,1000,100000,100000,100000,100000,20000,20000,20000,10000,10000,10000,100000,100000,10000,10000,10000,10000,10000,10000,100000,20000,20000,20000,20000,20000,20000,20000,20000,20000,20000,100000,100000,100000,100000,100000,100000,1000,1000,20000,10000,10000,10000,10000,10000,10000,10000,20000,20000,20000,10000,10000,10000,20000,20000,10000,10000,10000,10000,10000,20000,20000,20000,20000,2000,10000,50000,50000,20000,2000,2000,50000,20000,20000,20000,20000,20000,20000,20000,20000,20000,20000,1000,1000,1000,20000,10000,100000,100000,100000,20000,10000,10000,5000,20000,20000,20000,20000,20000,5000,20000,20000,100000,10000,20000,20000,10000,20000,20000,20000,10000,100000,20000,20000,20000];

assignmentToClusters = [1,2,3,4,5,2,3,6,2,7,8,2,9,3,10,11,3,12,13,14,9,9,15,16,17,18,19,20,21,22,23,24,25,26,9,14,27,9,19,28,3,2,29,30,31,32,33,19,34,2,35,36,37,38,9,39,3,40,41,2,2,9,32,42,43,2,2,19,3,44,3,3,45,32,46,47,48,49,50,45,51,52,53,54,55,56,3,57,9,58,59,60,61,62,63,64,2,65,66,14,67,68,69,70,71,72,73,74,75,76,77,78,79,80,81,82,83,84,85,86,87,88,89,90,91,92,93,94,95,96,97,98,99,100,101,102,103,104,105,106,107,108,109,110,111,112,113,114,115,116,117,118,119,120,121,122,123,124,125,126,127,128,129,130,131,132,133,134,135,136,137,138,139,140,141,142,143,144,145,146,147,148,149,150,151,152,153,154,155,156,157,158,159,160,161,162,163,164,165,166,167,168,169,170,171,172,173,174,175,176,177,178,179,180,181,182,183,184,185,186,187,188,189,190,191,192,193,194,195,196,197,198,199,2,2,2,2,2,2,2,2,2,2,2,2,2,2,3,3,3,3,3,3,3,3,3,3,3,3,3,3,9,9,9,9,9,9,9,9,9,9,14,14,14,14,19,19,19,19,19,19,32,32,32,32,45,45,67,68,69,70,71,72,73,74,75,76,77,78,79,80,81,82,83,84,85,86,87,88,89,90,91,92,93,94,95,96,97,98,99,100,101,102,103,104,105,106,107,108,109,110,111,112,113,114,115,116,117,118,119,120,121,122,123,124,125,126,127,128,129,130,131,132,133,134,135,136,137,138,139,140,141,142,143,144,145,146,147,148,149,150,151,152,153,154,155,156,157,158,159,160,161,162,163,164,165,166,167,168,169,170,171,172,173,174,175,176,177,178,179,180,181,182,183,184,185,186,187,188,189,190,191,192,193,194,195,196,197,198,199];

precedenceAdjList = [[],[234,236],[248],[],[],[],[250],[],[],[],[],[242,244],[61],[],[],[],[],[],[],[],[12],[],[],[],[],[],[],[],[],[],[],[],[],[],[270],[272],[],[266],[280],[],[6],[246],[],[],[],[282],[],[278],[],[1,238],[],[],[],[],[268],[],[254,256],[],[],[240],[],[262],[],[],[],[],[1],[276],[],[],[68,258],[260],[286],[284],[],[],[],[],[],[],[],[],[],[],[],[],[252],[],[264],[],[],[],[],[],[],[],[11],[],[],[274],[],[],[],[],[],[],[],[],[],[],[],[],[],[],[],[],[],[],[],[],[],[],[],[],[],[],[],[],[],[],[],[],[],[],[],[],[],[],[],[],[],[],[],[],[],[],[],[],[],[],[],[],[],[],[],[],[],[],[],[],[],[],[],[],[],[],[],[],[],[],[],[],[],[],[],[],[],[],[],[],[],[],[],[],[],[],[],[],[],[],[],[],[],[],[],[],[],[],[],[],[],[],[],[],[],[],[],[],[],[],[],[],[],[],[],[],[],[],[],[],[],[],[],[],[],[],[],[],[],[],[],[],[],[5],[233],[8],[235],[60],[237],[49],[239],[65],[241],[66],[243],[96],[245],[6],[247],[86],[249],[16],[251],[40],[253],[70],[255],[71],[257],[13],[259],[88],[261],[37],[263],[54],[265],[21],[267],[20],[269],[19],[271],[35],[273],[26],[275],[67],[277],[47],[279],[73],[281],[62],[283],[79],[285],[100],[101],[102],[103],[104],[105],[106],[107],[108],[109],[110],[111],[112],[113],[114],[115],[116],[117],[118],[119],[120],[121],[122],[123],[124],[125],[126],[127],[128],[129],[130],[131],[132],[133],[134],[135],[136],[137],[138],[139],[140],[141],[142],[143],[144],[145],[146],[147],[148],[149],[150],[151],[152],[153],[154],[155],[156],[157],[158],[159],[160],[161],[162],[163],[164],[165],[166],[167],[168],[169],[170],[171],[172],[173],[174],[175],[176],[177],[178],[179],[180],[181],[182],[183],[184],[185],[186],[187],[188],[189],[190],[191],[192],[193],[194],[195],[196],[197],[198],[199],[200],[201],[202],[203],[204],[205],[206],[207],[208],[209],[210],[211],[212],[213],[214],[215],[216],[217],[218],[219],[220],[221],[222],[223],[224],[225],[226],[227],[228],[229],[230],[231],[232]];